32
learned BranchingFlows molecule generation sample=0
C 38854248.000000 37135284.000000 4352695.000000
C 38854248.000000 37135284.000000 4352695.000000
C 38854248.000000 37135284.000000 4352695.000000
C 38854248.000000 37135284.000000 4352695.000000
C 38854248.000000 37135284.000000 4352695.000000
C 38854248.000000 37135284.000000 4352695.000000
C 38854248.000000 37135284.000000 4352695.000000
C 38854248.000000 37135284.000000 4352695.000000
C 38854248.000000 37135284.000000 4352695.000000
C 38854248.000000 37135284.000000 4352695.000000
C 38854248.000000 37135284.000000 4352695.000000
C 38854248.000000 37135284.000000 4352695.000000
C 38854248.000000 37135284.000000 4352695.000000
C 38854248.000000 37135284.000000 4352695.000000
C 38854248.000000 37135284.000000 4352695.000000
C 38854248.000000 37135284.000000 4352695.000000
C 38854248.000000 37135284.000000 4352695.000000
C 38854248.000000 37135284.000000 4352695.000000
C 38854248.000000 37135284.000000 4352695.000000
C 38854248.000000 37135284.000000 4352695.000000
C 38854248.000000 37135284.000000 4352695.000000
C 38854248.000000 37135284.000000 4352695.000000
C 38854248.000000 37135284.000000 4352695.000000
C 38854248.000000 37135284.000000 4352695.000000
C 38854248.000000 37135284.000000 4352695.000000
C 38854248.000000 37135284.000000 4352695.000000
C 38854248.000000 37135284.000000 4352695.000000
C 38854248.000000 37135284.000000 4352695.000000
C 38854248.000000 37135284.000000 4352695.000000
C 38854248.000000 37135284.000000 4352695.000000
C 38854248.000000 37135284.000000 4352695.000000
C 38854248.000000 37135284.000000 4352695.000000
